WARNING: for repeatability, setting FPU to use double precision
============================[ Problem Statistics ]=============================
|                                                                             |
|  Number of variables:           100                                         |
|  Number of clauses:             449                                         |
|  Parse time:                   0.00 s                                       |
|  Eliminated clauses:           0.00 Mb                                      |
|  Simplification time:          0.00 s                                       |
|                                                                             |
============================[ Search Statistics ]==============================
| Conflicts |          ORIGINAL         |          LEARNT          | Progress |
|           |    Vars  Clauses Literals |    Limit  Clauses Lit/Cl |          |
===============================================================================
|       100 |      99      448     1348 |      164      100      7 |  0.010 % |
|       250 |      99      448     1348 |      180      166      6 |  0.020 % |
===============================================================================
restarts              : 4
conflicts             : 459            (116114 /sec)
decisions             : 558            (0.00 % random) (141159 /sec)
propagations          : 11606          (2935998 /sec)
conflict literals     : 2963           (23.52 % deleted)
Memory used           : 13.00 MB
CPU time              : 0.003953 s

SATISFIABLE
